100
32
19
28
28
20
18
7
12
17
10
10
10
10
6
20
6
12
27
9
11
9
2
6
19
12
18
19
29
1
20
9
8
1
14
1
19
1
14
1
16
2
4
1
2
1
18
8
5
1
7
2
3
1
3
1
21
1
2
3
17
5
2
1
2
1
1
7
4
3
2
1
19
2
2
3
1
1
6
3
2
2
3
17
1
5
1
2
18
2
1
8
2
17
3
5
2
2
1
1
1
3